z1,z2,z3,nondominated
2,9,4,0
6,5,2,0
2,9,5,0
3,6,4,0
3,6,3,0
8,5,2,0
10,5,2,0
4,2,8,0
8,3,3,0
1,8,6,0
2,8,4,0
3,3,5,0
9,3,3,0
3,10,4,0
5,5,3,0
5,7,1,0
3,3,5,0
3,7,3,0
6,2,5,0
2,6,5,0
7,8,1,0
3,7,3,0
7,6,1,0
6,4,3,0
5,2,6,0
3,10,3,0
4,7,2,0
4,3,6,0
2,5,5,0
3,9,3,0
8,2,4,0
4,8,2,0
4,3,9,0
8,2,5,0
2,4,9,0
5,2,8,0
1,1,1,0
1,1,1,0
1,1,1,0
1,1,1,0
1,1,1,0
1,1,1,0
